NAME: tsp20
TYPE: TSP
COMMENT: 20-node problem
DIMENSION: 20
EDGE_WEIGHT_TYPE: EUC_2D
NODE_COORD_SECTION
1 10 10
2 20 20
3 30 10
4 40 40
5 50 50
6 10 50
7 30 30
8 40 10
9 20 40
10 50 10
11 15 25
12 35 45
13 5  15
14 25 35
15 45 5
16 10 30
17 20 5
18 30 50
19 40 25
20 50 35
EOF
